<instance format="XCSP3" type="CSP">
  <variables>
    <array id="x" size="[11]"> 0..63 </array>
  </variables>
  <constraints>
    <allDifferent> x[] </allDifferent>
    <group>
      <extension>
        <list> %0 %1 </list>
        <supports> (0,1)(0,7)(0,8)(0,56)(1,0)(1,2)(1,9)(1,57)(2,1)(2,3)(2,10)(2,58)(3,2)(3,4)(3,11)(3,59)(4,3)(4,5)(4,12)(4,60)(5,4)(5,6)(5,13)(5,61)(6,5)(6,7)(6,14)(6,62)(7,0)(7,6)(7,15)(7,63)(8,0)(8,9)(8,15)(8,16)(9,1)(9,8)(9,10)(9,17)(10,2)(10,9)(10,11)(10,18)(11,3)(11,10)(11,12)(11,19)(12,4)(12,11)(12,13)(12,20)(13,5)(13,12)(13,14)(13,21)(14,6)(14,13)(14,15)(14,22)(15,7)(15,8)(15,14)(15,23)(16,8)(16,17)(16,23)(16,24)(17,9)(17,16)(17,18)(17,25)(18,10)(18,17)(18,19)(18,26)(19,11)(19,18)(19,20)(19,27)(20,12)(20,19)(20,21)(20,28)(21,13)(21,20)(21,22)(21,29)(22,14)(22,21)(22,23)(22,30)(23,15)(23,16)(23,22)(23,31)(24,16)(24,25)(24,31)(24,32)(25,17)(25,24)(25,26)(25,33)(26,18)(26,25)(26,27)(26,34)(27,19)(27,26)(27,28)(27,35)(28,20)(28,27)(28,29)(28,36)(29,21)(29,28)(29,30)(29,37)(30,22)(30,29)(30,31)(30,38)(31,23)(31,24)(31,30)(31,39)(32,24)(32,33)(32,39)(32,40)(33,25)(33,32)(33,34)(33,41)(34,26)(34,33)(34,35)(34,42)(35,27)(35,34)(35,36)(35,43)(36,28)(36,35)(36,37)(36,44)(37,29)(37,36)(37,38)(37,45)(38,30)(38,37)(38,39)(38,46)(39,31)(39,32)(39,38)(39,47)(40,32)(40,41)(40,47)(40,48)(41,33)(41,40)(41,42)(41,49)(42,34)(42,41)(42,43)(42,50)(43,35)(43,42)(43,44)(43,51)(44,36)(44,43)(44,45)(44,52)(45,37)(45,44)(45,46)(45,53)(46,38)(46,45)(46,47)(46,54)(47,39)(47,40)(47,46)(47,55)(48,40)(48,49)(48,55)(48,56)(49,41)(49,48)(49,50)(49,57)(50,42)(50,49)(50,51)(50,58)(51,43)(51,50)(51,52)(51,59)(52,44)(52,51)(52,53)(52,60)(53,45)(53,52)(53,54)(53,61)(54,46)(54,53)(54,55)(54,62)(55,47)(55,48)(55,54)(55,63)(56,0)(56,48)(56,57)(56,63)(57,1)(57,49)(57,56)(57,58)(58,2)(58,50)(58,57)(58,59)(59,3)(59,51)(59,58)(59,60)(60,4)(60,52)(60,59)(60,61)(61,5)(61,53)(61,60)(61,62)(62,6)(62,54)(62,61)(62,63)(63,7)(63,55)(63,56)(63,62) </supports>
      </extension>
      <args> x[0] x[1] </args>
      <args> x[0] x[2] </args>
      <args> x[0] x[3] </args>
      <args> x[0] x[4] </args>
      <args> x[0] x[5] </args>
      <args> x[0] x[6] </args>
      <args> x[0] x[7] </args>
      <args> x[0] x[8] </args>
      <args> x[0] x[9] </args>
      <args> x[0] x[10] </args>
      <args> x[1] x[2] </args>
      <args> x[1] x[10] </args>
      <args> x[2] x[3] </args>
      <args> x[3] x[4] </args>
      <args> x[4] x[5] </args>
      <args> x[5] x[6] </args>
      <args> x[6] x[7] </args>
      <args> x[7] x[8] </args>
      <args> x[8] x[9] </args>
      <args> x[9] x[10] </args>
    </group>
    <extension class="redundantConstraints">
      <list> x[0] </list>
      <conflicts> 0..63 </conflicts>
    </extension>
  </constraints>
</instance>
